50 8
120 583
697 865
966 834
870 395
808 856
732 781
436 444
686 740
797 654
672 622
640 641
455 387
777 752
679 101
424 136
615 742
517 570
275 538
655 757
463 829
105 472
962 664
477 756
245 610
619 29
289 710
841 344
52 221
397 424
845 173
284 764
52 505
715 861
617 87
540 23
137 428
133 634
768 297
584 72
500 207
474 178
802 782
609 96
549 480
679 764
887 846
221 662
163 552
213 770
71 523
